Timesteps: 1
s UNSATISFIABLE
real 0.10
user 0.00
sys 0.00
Timesteps: 2
s UNSATISFIABLE
real 0.09
user 0.01
sys 0.00
Timesteps: 3
s UNSATISFIABLE
real 0.08
user 0.02
sys 0.00
Timesteps: 4
s UNSATISFIABLE
real 0.14
user 0.04
sys 0.00
Timesteps: 5
s UNSATISFIABLE
real 0.11
user 0.06
sys 0.00
Timesteps: 6
s UNSATISFIABLE
real 0.17
user 0.11
sys 0.00
Timesteps: 7
s UNSATISFIABLE
real 0.32
user 0.24
sys 0.00
Timesteps: 8
s UNSATISFIABLE
real 0.49
user 0.41
sys 0.00
Timesteps: 9
s UNSATISFIABLE
real 1.44
user 1.35
sys 0.00
Timesteps: 10
s UNSATISFIABLE
real 2.11
user 2.01
sys 0.01
Timesteps: 11
s UNSATISFIABLE
real 3.49
user 3.36
sys 0.01
Timesteps: 12
s UNSATISFIABLE
real 6.53
user 6.37
sys 0.01
Timesteps: 13
s UNSATISFIABLE
real 7.44
user 7.27
sys 0.02
Timesteps: 14
s UNSATISFIABLE
real 7.81
user 7.64
sys 0.02
Timesteps: 15
s UNSATISFIABLE
real 8.82
user 8.63
sys 0.02
Timesteps: 16
s UNSATISFIABLE
real 8.93
user 8.73
sys 0.02
Timesteps: 17
s UNSATISFIABLE
real 9.38
user 9.14
sys 0.03
Timesteps: 18
s UNSATISFIABLE
real 11.38
user 11.15
sys 0.03
Timesteps: 19
s UNSATISFIABLE
real 10.08
user 9.84
sys 0.03
Timesteps: 20
s UNSATISFIABLE
real 10.98
user 10.74
sys 0.02
Timesteps: 21
s UNSATISFIABLE
real 14.49
user 14.21
sys 0.04
Timesteps: 22
s UNSATISFIABLE
real 15.43
user 15.13
sys 0.05
Timesteps: 23
s UNSATISFIABLE
real 19.24
user 18.91
sys 0.05
Timesteps: 24
s UNSATISFIABLE
real 18.89
user 18.55
sys 0.06
Timesteps: 25
s UNSATISFIABLE
real 22.37
user 21.94
sys 0.07
Timesteps: 26
s UNSATISFIABLE
real 23.64
user 23.23
sys 0.06
Timesteps: 27
s UNSATISFIABLE
real 29.93
user 29.51
sys 0.07
Timesteps: 28
s UNSATISFIABLE
real 37.57
user 37.08
sys 0.08
Timesteps: 29
s UNSATISFIABLE
real 38.63
user 38.13
sys 0.10
Timesteps: 30
s UNSATISFIABLE
real 48.15
user 47.61
sys 0.10
Timesteps: 31
s UNSATISFIABLE
real 55.11
user 54.51
sys 0.11
Timesteps: 32
s UNSATISFIABLE
real 57.75
user 57.12
sys 0.12
Timesteps: 33
s UNSATISFIABLE
real 128.39
user 126.83
sys 0.23
Timesteps: 34
s UNSATISFIABLE
real 98.25
user 96.95
sys 0.16
Timesteps: 35
s UNSATISFIABLE
real 114.95
user 114.05
sys 0.19
Timesteps: 36
s UNSATISFIABLE
real 109.38
user 108.47
sys 0.17
Timesteps: 37
s UNSATISFIABLE
real 159.55
user 158.40
sys 0.26
Timesteps: 38
s UNSATISFIABLE
real 391.44
user 388.49
sys 0.50
Timesteps: 39
s UNSATISFIABLE
real 285.15
user 283.41
sys 0.38
Timesteps: 40
s UNSATISFIABLE
real 325.33
user 322.88
sys 0.42
Timesteps: 41
s UNSATISFIABLE
real 418.56
user 416.18
sys 0.53
Timesteps: 42
s UNSATISFIABLE
real 601.60
user 598.31
sys 0.71
Timesteps: 43
